% demand
num_movements = 19;
loading_factor = [1300, 1250, 1850, 1500, 1100, 2000, 1600, 900, 1300, 1950, 1100, 1050, 1950, 1050, 1200, 1400, 1350, 1950, 1850];
pickup_time = [0, 1, 1, 1, 1, 3, 4, 4, 6, 6, 6, 7, 7, 7, 8, 9, 9, 9, 9];
delivery_time = [5, 2, 4, 2, 5, 6, 5, 6, 8, 7, 9, 8, 9, 9, 9, 10, 10, 10, 10];

% transporter definition
total_capacity = 7000;
num_decks = 3;
capacity = [3000, 1000, 3000];

% ways out of decks
num_ways_out = 1;
paths_out = array3d(decks, ways_out, decks, [
% ways out of deck d1
2, 3, 0, 

% ways out of deck d2
3, 0, 0, 

% ways out of deck d3
0, 0, 0,	

]);

